(declare-fun bvlambda_47_ ()Bool         )
(declare-fun a186 () (Array (_ BitVec 1) (_ BitVec 12)))
(assert
(let (($e21 (_ bv72 12)))
(let (($e42 (_ bv20 12)))
(let (($e711 (store a186 true        $e42)))
(let (($e712 (store $e711        bvlambda_47_ $e21)))
(
                  extract(select $e712 true)
                                                                                                                                                                                                                                                                                                                                                                                                                                                                                                                                                                                                                                                                                                                                                                                                                                                                                                                                                                                                                                                                                                                                                                                                                                                                                                                                                                                                                                                                                                                                                                                                                                                                                                                                                                                                                                                                                                                                                                                                                                                                                        )                                                                                                                                                                                                                                                                                                                               ))                                                                                                                                                                                                                                                                                                                                                                                                                                                                                                                                                                                                                              )                    )                    )
